10	5
0	4	4	2	3	1
1	2	5	6
2	1	6
3	3	7	10	5
4	1	8
5	1	9
6	1	11
7	1	11
8	1	11
9	1	11
10	1	11
11	0
0	0	0	0	0	0	0
1	4	2	1	3	0	1
2	9	4	4	1	5	5
3	3	2	4	0	2	1
4	2	2	1	2	1	1
5	7	0	3	0	3	2
6	7	3	0	2	0	0
7	8	1	1	4	1	2
8	2	2	5	0	3	3
9	9	0	2	5	0	3
10	7	0	1	2	0	1
11	0	0	0	0	0	0
6	8	6	7	7
